p tw 153 165
1 2
2 66
3 14
4 5
5 6
5 13
6 7
7 8
8 9
9 10
10 11
11 12
12 13
13 15
14 25
15 16
16 17
16 28
17 18
18 19
19 20
20 21
21 22
22 23
23 24
24 26
25 36
25 48
26 27
27 28
28 29
29 30
30 31
31 32
32 33
33 34
34 35
35 37
36 47
37 38
38 51
39 40
40 41
41 42
42 51
43 44
44 45
45 46
46 60
47 58
48 49
49 50
50 51
51 52
52 53
53 110
54 55
55 56
56 57
57 59
58 62
59 60
60 61
62 63
63 64
63 39
64 65
65 67
66 77
67 68
68 69
69 70
69 86
70 71
71 72
71 108
72 73
73 74
73 140
74 75
75 76
75 80
76 78
77 88
78 79
78 83
79 43
80 81
81 82
82 51
83 84
84 85
85 51
86 87
87 89
87 91
88 99
89 90
90 93
91 92
92 93
93 94
94 95
95 96
96 97
97 98
98 100
99 110
100 101
101 102
102 103
103 104
104 105
105 106
106 107
107 51
108 109
109 111
109 113
110 121
111 112
112 115
113 114
114 115
115 116
116 117
117 118
118 119
119 120
120 122
121 132
122 123
123 124
124 125
125 126
126 127
127 128
128 129
129 130
130 131
131 133
132 143
133 134
134 135
135 136
136 137
137 138
138 139
139 51
140 141
141 142
141 145
142 144
143 3
143 54
144 147
145 146
146 147
147 148
148 149
149 150
150 151
151 152
152 153
153 4
